
Gurobi 6.5.2 (linux64) logging started Wed Sep 14 14:58:48 2016

Optimize a model with 21 rows, 24 columns and 53 nonzeros
Coefficient statistics:
  Matrix range    [1e+00, 2e+00]
  Objective range [1e+01, 8e+01]
  Bounds range    [1e+00, 1e+00]
  RHS range       [1e+00, 1e+00]
Found heuristic solution: objective 369
Presolve removed 21 rows and 23 columns
Presolve time: 0.00s
Presolved: 0 rows, 1 columns, 0 nonzeros
Variable types: 0 continuous, 1 integer (1 binary)

Explored 0 nodes (0 simplex iterations) in 0.00 seconds
Thread count was 8 (of 8 available processors)

Optimal solution found (tolerance 1.00e-04)
Best objective 3.690000000000e+02, best bound 3.690000000000e+02, gap 0.0%
